benchmarks_vrp/CMT2/no_cluster/CMT2_1.vrp
NAME: CMT2_1
TYPE: CVRP
COMMENT: 835.26 - Cluster Nr.1
DIMENSION: 9
CAPACITY: 140
EDGE_WEIGHT_TYPE: EUC_2D
NODE_COORD_TYPE: TWOD_COORDS
NODE_COORD_SECTION: 
7 7 43
1 40 40
8 12 38
4 21 45
6 6 25
3 21 48
9 11 28
5 21 36
2 26 29
DEPOT_SECTION: 
1
-1
DEMAND_SECTION: 
6 26
5 19
1 0
2 27
4 11
8 5
3 17
9 6
7 27
EOF
