benchmarks_vrp/CMT2/no_cluster/CMT2_1.tour
NAME: CMT2_1 solution
TYPE: TOUR
TOUR_SECTION:
1 2 5 9 6 8 7 4 3 -1
-1
EOF